100
32
3
22
22
3
6
6
1
18
28
1
26
13
6
10
10
17
2
23
13
10
21
8
2
16
1
5
3
1
3
27
1
1
6
1
17
2
2
17
3
1
1
1
2
1
1
6
3
18
11
1
1
17
4
3
20
3
3
1
1
5
4
18
1
19
8
2
8
4
5
1
3
1
18
3
4
1
1
4
3
3
3
2
1
5
2
2
19
1
17
3
1
3
3
2
1
3
1
2
2
1